g3 0 1 0	# problem ex6_2_13
 6 3 1 0 3	# vars, constraints, objectives, ranges, eqns
 0 1	# nonlinear constraints, objectives
 0 0	# network constraints: nonlinear, linear
 0 6 0	# nonlinear vars in constraints, objectives, both
 0 0 0 1	# linear network variables; functions; arith, flags
 0 0 0 0 0	# discrete variables: binary, integer, nonlinear (b,c,o)
 6 6	# nonzeros in Jacobian, gradients
 0 0	# max name lengths: constraints, variables
 0 0 0 0 0	# common exprs: b,c,o,c1,o1
b
0 1e-07 0.08
0 1e-07 0.08
0 1e-07 0.3
0 1e-07 0.3
0 1e-07 0.62
0 1e-07 0.62
x6
0 0.0739
1 0.0061
2 0.2773
3 0.0227
4 0.5731
5 0.0469
r
4 0.08
4 0.3
4 0.62
C0
n0
C1
n0
C2
n0
O0 0
o54
22
o2
v0
o43
o3
v0
o54
3
o2
n3
v0
o2
n6
v2
v4
o2
v2
o43
o3
v2
o54
3
o2
n3
v0
o2
n6
v2
v4
o2
v4
o43
o3
v4
o54
3
o2
n3
v0
o2
n6
v2
v4
o2
o54
3
o2
n3
v0
o2
n6
v2
o2
n1.6
v4
o43
o54
3
o2
n3
v0
o2
n6
v2
o2
n1.6
v4
o2
o2
n2
v0
o43
o3
v0
o54
3
o2
n2.00000019368913
v0
o2
n4.64593
v2
o2
n0.480353
v4
o2
v0
o43
o3
v0
o54
3
o2
n1.00772874182154
v0
o2
n0.724703350369523
v2
o2
n0.947722362492017
v4
o2
o2
n6
v2
o43
o3
v2
o54
3
o2
n3.36359157977228
v0
o2
n6
v2
o2
n1.13841069150863
v4
o2
o2
n1.6
v4
o43
o3
v4
o54
3
o2
n1.6359356134845
v0
o2
n3.39220996773471
v2
o2
n1.6
v4
o2
v1
o43
o3
v1
o54
3
o2
n3
v1
o2
n6
v3
v5
o2
v3
o43
o3
v3
o54
3
o2
n3
v1
o2
n6
v3
v5
o2
v5
o43
o3
v5
o54
3
o2
n3
v1
o2
n6
v3
v5
o2
o54
3
o2
n3
v1
o2
n6
v3
o2
n1.6
v5
o43
o54
3
o2
n3
v1
o2
n6
v3
o2
n1.6
v5
o2
o2
n2
v1
o43
o3
v1
o54
3
o2
n2.00000019368913
v1
o2
n4.64593
v3
o2
n0.480353
v5
o2
v1
o43
o3
v1
o54
3
o2
n1.00772874182154
v1
o2
n0.724703350369523
v3
o2
n0.947722362492017
v5
o2
o2
n6
v3
o43
o3
v3
o54
3
o2
n3.36359157977228
v1
o2
n6
v3
o2
n1.13841069150863
v5
o2
o2
n1.6
v5
o43
o3
v5
o54
3
o2
n1.6359356134845
v1
o2
n3.39220996773471
v3
o2
n1.6
v5
o16
o2
o2
n3
v0
o43
v0
o16
o2
o2
n6
v2
o43
v2
o16
o2
o2
n1.6
v4
o43
v4
o16
o2
o2
n3
v1
o43
v1
o16
o2
o2
n6
v3
o43
v3
o16
o2
o2
n1.6
v5
o43
v5
k5
1
2
3
4
5
J0 2
0 1
1 1
J1 2
2 1
3 1
J2 2
4 1
5 1
G0 6
0 -0.80323071133189
1 -0.80323071133189
2 1.79175946922805
3 1.79175946922805
4 0.752006
5 0.752006
